(set-info :smt-lib-version 2.6)
(set-logic QF_UFLRA)
(set-info :source |
MathSat group

|)
(set-info :category "random")
(set-info :status sat)
(declare-fun x0 () Real)
(declare-fun x1 () Real)
(declare-fun x2 () Real)
(declare-fun x3 () Real)
(declare-fun x4 () Real)
(declare-fun x5 () Real)
(declare-fun x6 () Real)
(declare-fun x7 () Real)
(declare-fun x8 () Real)
(declare-fun x9 () Real)
(declare-fun x10 () Real)
(declare-fun x11 () Real)
(declare-fun x12 () Real)
(declare-fun x13 () Real)
(declare-fun x14 () Real)
(declare-fun x15 () Real)
(declare-fun x16 () Real)
(declare-fun x17 () Real)
(declare-fun x18 () Real)
(declare-fun x19 () Real)
(declare-fun x20 () Real)
(declare-fun x21 () Real)
(declare-fun x22 () Real)
(declare-fun x23 () Real)
(declare-fun x24 () Real)
(declare-fun x25 () Real)
(declare-fun x26 () Real)
(declare-fun x27 () Real)
(declare-fun x28 () Real)
(declare-fun x29 () Real)
(declare-fun x30 () Real)
(declare-fun x31 () Real)
(declare-fun x32 () Real)
(declare-fun x33 () Real)
(declare-fun x34 () Real)
(declare-fun x35 () Real)
(declare-fun x36 () Real)
(declare-fun x37 () Real)
(declare-fun x38 () Real)
(declare-fun x39 () Real)
(declare-fun x40 () Real)
(declare-fun x41 () Real)
(declare-fun x42 () Real)
(declare-fun x43 () Real)
(declare-fun x44 () Real)
(declare-fun x45 () Real)
(declare-fun x46 () Real)
(declare-fun x47 () Real)
(declare-fun x48 () Real)
(declare-fun x49 () Real)
(declare-fun f0_1 (Real) Real)
(declare-fun f0_2 (Real Real) Real)
(declare-fun f0_3 (Real Real Real) Real)
(declare-fun f0_4 (Real Real Real Real) Real)
(declare-fun P0 () Bool)
(declare-fun P1 () Bool)
(declare-fun P2 () Bool)
(declare-fun P3 () Bool)
(declare-fun P4 () Bool)
(declare-fun P5 () Bool)
(declare-fun P6 () Bool)
(declare-fun P7 () Bool)
(declare-fun P8 () Bool)
(declare-fun P9 () Bool)
(declare-fun P10 () Bool)
(declare-fun P11 () Bool)
(declare-fun P12 () Bool)
(declare-fun P13 () Bool)
(declare-fun P14 () Bool)
(declare-fun P15 () Bool)
(declare-fun P16 () Bool)
(declare-fun P17 () Bool)
(declare-fun P18 () Bool)
(declare-fun P19 () Bool)
(declare-fun P20 () Bool)
(declare-fun P21 () Bool)
(declare-fun P22 () Bool)
(declare-fun P23 () Bool)
(declare-fun P24 () Bool)
(declare-fun P25 () Bool)
(declare-fun P26 () Bool)
(declare-fun P27 () Bool)
(declare-fun P28 () Bool)
(declare-fun P29 () Bool)
(declare-fun P30 () Bool)
(declare-fun P31 () Bool)
(declare-fun P32 () Bool)
(declare-fun P33 () Bool)
(declare-fun P34 () Bool)
(declare-fun P35 () Bool)
(declare-fun P36 () Bool)
(declare-fun P37 () Bool)
(declare-fun P38 () Bool)
(declare-fun P39 () Bool)
(declare-fun P40 () Bool)
(declare-fun P41 () Bool)
(declare-fun P42 () Bool)
(declare-fun P43 () Bool)
(declare-fun P44 () Bool)
(declare-fun P45 () Bool)
(declare-fun P46 () Bool)
(declare-fun P47 () Bool)
(declare-fun P48 () Bool)
(declare-fun P49 () Bool)
(assert (let ((?v_189 (<= (- (- (* 26 x9) (* 8 x9)) (* 8 x12)) 29)) (?v_130 (* 18 x5))) (let ((?v_79 (< (- (+ (* 3 x33) ?v_130) (* 3 x18)) 23)) (?v_58 (* 18 x42)) (?v_121 (* 5 x14)) (?v_1 (< (- (+ (* 24 x37) (* 2 x48)) (* 2 x12)) 7)) (?v_50 (distinct (- (+ (* 13 x43) (* 21 x46)) (* 24 x48)) 19)) (?v_114 (f0_1 x38))) (let ((?v_137 (= ?v_114 x27)) (?v_75 (f0_1 x6))) (let ((?v_101 (distinct (f0_1 x12) ?v_75)) (?v_138 (= x29 (f0_1 x39))) (?v_218 (= (f0_1 x26) x10)) (?v_5 (f0_1 x25))) (let ((?v_67 (distinct ?v_5 (f0_2 x22 x38))) (?v_179 (distinct x21 (f0_1 x2))) (?v_224 (= x39 (f0_2 x49 x19))) (?v_72 (= ?v_5 (f0_1 x16))) (?v_116 (= ?v_114 (f0_2 x34 x0))) (?v_84 (distinct x15 (f0_2 x33 x11))) (?v_196 (= (f0_1 x30) (f0_2 x2 x2))) (?v_12 (f0_1 x5))) (let ((?v_30 (= (f0_1 x4) ?v_12)) (?v_7 (= x46 x4)) (?v_207 (= x23 x11)) (?v_51 (distinct x23 x17)) (?v_105 (distinct (f0_1 x1) (f0_2 x36 x11))) (?v_71 (f0_1 x46))) (let ((?v_88 (= ?v_71 (f0_1 x42))) (?v_184 (distinct (f0_2 x25 x44) (f0_1 x34))) (?v_35 (distinct (f0_2 x43 x29) (f0_2 x29 x12))) (?v_65 (= (f0_2 x49 x13) x29)) (?v_40 (= x27 (f0_2 x48 x41))) (?v_9 (f0_1 x29))) (let ((?v_57 (= ?v_9 (f0_2 x30 x41))) (?v_34 (distinct ?v_9 x34)) (?v_154 (= (f0_2 x32 x15) (f0_2 x10 x19))) (?v_182 (= x14 (f0_2 x32 x4))) (?v_70 (f0_1 x31)) (?v_177 (f0_1 x13))) (let ((?v_221 (= ?v_70 ?v_177)) (?v_148 (= x37 (f0_2 x14 x36))) (?v_100 (= (f0_2 x1 x28) x34)) (?v_10 (f0_1 x22))) (let ((?v_126 (distinct (f0_2 x13 x11) ?v_10)) (?v_36 (= x27 (f0_2 x49 x46))) (?v_32 (f0_1 x33))) (let ((?v_142 (= ?v_32 (f0_2 x5 x27))) (?v_95 (= x2 ?v_75)) (?v_149 (= x26 (f0_1 x0))) (?v_2 (f0_1 x19))) (let ((?v_153 (= ?v_2 (f0_2 x24 x40))) (?v_78 (distinct x19 x4)) (?v_97 (distinct (f0_2 x31 x45) x20)) (?v_146 (distinct x11 x28)) (?v_53 (distinct (f0_2 x18 x43) (f0_2 x30 x36))) (?v_89 (= ?v_70 ?v_71)) (?v_54 (= (f0_1 x32) (f0_1 x23))) (?v_26 (f0_1 x8))) (let ((?v_14 (distinct ?v_26 ?v_2)) (?v_41 (= ?v_32 x33)) (?v_87 (distinct x16 x14)) (?v_8 (f0_1 x27))) (let ((?v_122 (= x14 ?v_8)) (?v_83 (= (f0_1 x47) (f0_2 x4 x14))) (?v_33 (= ?v_26 (f0_2 x32 x17))) (?v_23 (= (f0_2 x24 x42) (f0_2 x20 x18))) (?v_11 (= ?v_10 ?v_8)) (?v_214 (= ?v_177 x8)) (?v_0 (distinct (f0_2 x10 x24) ?v_12)) (?v_194 (not ?v_154))) (let ((?v_13 (not ?v_23)) (?v_20 (not ?v_88)) (?v_109 (not P34)) (?v_47 (not ?v_0)) (?v_155 (not P26)) (?v_112 (not ?v_79)) (?v_229 (not P45)) (?v_55 (not ?v_14)) (?v_28 (not P32)) (?v_63 (not ?v_179)) (?v_234 (not ?v_65)) (?v_226 (not ?v_153)) (?v_94 (not ?v_221)) (?v_125 (not ?v_7)) (?v_160 (not P10)) (?v_59 (not P40)) (?v_49 (not ?v_57)) (?v_236 (not ?v_34)) (?v_15 (not ?v_189)) (?v_16 (not ?v_30)) (?v_21 (not P21)) (?v_123 (not ?v_53)) (?v_117 (not P19)) (?v_56 (not P46)) (?v_110 (not P2)) (?v_60 (not P43)) (?v_206 (not P44)) (?v_22 (not P28)) (?v_86 (not P36)) (?v_165 (not ?v_33)) (?v_151 (not P33)) (?v_42 (not ?v_36)) (?v_166 (not P8)) (?v_80 (not ?v_97)) (?v_64 (not P30)) (?v_38 (not P48)) (?v_111 (not P27)) (?v_240 (not P49)) (?v_92 (not P11)) (?v_91 (not P18)) (?v_46 (not ?v_51)) (?v_62 (not ?v_40)) (?v_217 (not ?v_41)) (?v_127 (not P13)) (?v_168 (not P24)) (?v_103 (not ?v_50)) (?v_73 (not P29)) (?v_254 (not ?v_149)) (?v_77 (not ?v_54)) (?v_96 (not P25)) (?v_118 (not ?v_83)) (?v_162 (not ?v_11)) (?v_201 (not P0)) (?v_157 (not ?v_67)) (?v_243 (not ?v_89)) (?v_158 (not ?v_72)) (?v_167 (not P41)) (?v_195 (not ?v_78)) (?v_180 (not P14)) (?v_174 (not P3)) (?v_156 (not P16)) (?v_99 (not ?v_87)) (?v_113 (not ?v_224)) (?v_119 (not P6)) (?v_230 (not ?v_100)) (?v_139 (not ?v_101)) (?v_190 (not P17)) (?v_212 (not P9)) (?v_131 (not ?v_1)) (?v_205 (not ?v_207)) (?v_132 (not P22)) (?v_191 (not ?v_84)) (?v_250 (not ?v_126)) (?v_211 (not ?v_138)) (?v_193 (not ?v_148)) (?v_259 (not P15)) (?v_260 (not P20)) (?v_178 (not ?v_35)) (?v_181 (not ?v_116)) (?v_213 (not ?v_142)) (?v_253 (not P4)) (?v_219 (not ?v_184)) (?v_187 (not ?v_146)) (?v_209 (not P1)) (?v_210 (not P37)) (?v_232 (not P5)) (?v_233 (not P12)) (?v_216 (not ?v_137)) (?v_227 (not ?v_196)) (?v_238 (not ?v_182)) (?v_215 (not P7)) (?v_247 (not ?v_122)) (?v_255 (not ?v_214)) (?v_220 (not ?v_218)) (?v_239 (not P38)) (?v_249 (not ?v_105)) (?v_241 (not ?v_95)) (?v_244 (not P23)) (?v_242 (not P31)) (?v_252 (not P47)) (?v_257 (not P35)) (?v_258 (not P39))) (let ((?v_265 (or ?v_34 ?v_216)) (?v_161 (distinct (+ (* 11 x22) (* 6 x2)) 10))) (let ((?v_133 (not ?v_161)) (?v_199 (<= (+ (- (* 6 x11) 0) (* 7 x39)) 3))) (let ((?v_106 (not ?v_199)) (?v_37 (= (+ (* 10 x5) (* 19 x46) (* 4 x10)) 20)) (?v_43 (<= (- (* 3 x20) (* 11 x15)) 17))) (let ((?v_147 (not ?v_43)) (?v_198 (< (- (* 7 x18) x22) 16)) (?v_186 (<= (+ (- 0 (* 20 x47)) (* 19 x25)) 2)) (?v_140 (distinct (+ ?v_58 (* 6 x38) (* 6 x10)) 22))) (let ((?v_76 (not ?v_140)) (?v_169 (not ?v_37)) (?v_128 (distinct (+ (* 14 x31) (* 9 x36) (* 26 x11)) 12))) (let ((?v_124 (not ?v_128)) (?v_104 (< (* 10 x30) 10))) (let ((?v_231 (not ?v_104)) (?v_202 (< (- (* 3 x43) (* 19 x37)) 11)) (?v_225 (not ?v_186)) (?v_235 (not ?v_198))) (let ((?v_262 (not ?v_202)) (?v_68 (distinct (- (+ (* 8 x33) (* 17 x8)) 0) (- 18)))) (let ((?v_3 (not ?v_68)) (?v_27 (= (- (- (* (- 10) x22) (* 26 x3)) (* 19 x22)) 15))) (let ((?v_102 (not ?v_27)) (?v_18 (<= (- (+ (* 16 x16) (* 2 x16)) (* 9 x21)) (- 27)))) (let ((?v_108 (not ?v_18)) (?v_24 (< (- (- (* (- 21) x25) (* 10 x27)) (* 21 x32)) 0))) (let ((?v_135 (not ?v_24)) (?v_4 (< (+ (- (* (- 26) x21) (* 2 x47)) (* 19 x23)) (- 25)))) (let ((?v_45 (not ?v_4)) (?v_200 (= (- (+ (* (- 8) x42) (* 27 x43)) (* 23 x37)) (- 9)))) (let ((?v_48 (not ?v_200)) (?v_31 (< (- (+ (* 9 x13) ?v_58) x19) (- 13)))) (let ((?v_98 (not ?v_31)) (?v_6 (< (- (- (* (- 6) x12) (* 27 x47)) (* 8 x27)) 13))) (let ((?v_25 (not ?v_6)) (?v_144 (= (- (+ (* (- 22) x36) (* 24 x38)) (* 19 x5)) (- 7)))) (let ((?v_134 (not ?v_144)) (?v_52 (<= (- (- (* (- 26) x19) (* 12 x40)) (* 23 x11)) (- 25)))) (let ((?v_93 (not ?v_52)) (?v_145 (< (- (+ (* (- 6) x14) (* 12 x31)) (* 3 x47)) 12)) (?v_17 (< (+ (- (* (- 16) x16) 0) (* 17 x12)) (- 16))) (?v_90 (distinct (+ (- (* (- 23) x4) 0) (* 26 x35)) (- 3)))) (let ((?v_223 (not ?v_90)) (?v_152 (< (+ (- (* 10 x39) (* 25 x30)) (* 10 x21)) (- 16))) (?v_19 (< (- (+ (* (- 1) x24) (* 12 x37)) (* 11 x44)) (- 1)))) (let ((?v_163 (not ?v_19)) (?v_69 (< (- (- (* (- 27) x22) (* 9 x43)) (* 21 x27)) 24))) (let ((?v_263 (not ?v_69)) (?v_129 (< (- (- (* 6 x27) (* 6 x33)) (* 11 x16)) (- 15))) (?v_82 (<= (- (+ (* (- 1) x16) (* 17 x39)) (* 17 x46)) (- 16))) (?v_29 (= (+ (- (* (- 25) x26) ?v_121) (* 10 x11)) 1)) (?v_115 (< (- (+ (* (- 17) x39) (* 5 x30)) (* 12 x43)) 0))) (let ((?v_74 (not ?v_115)) (?v_39 (<= (+ (- (* 13 x28) 0) (* 25 x26)) (- 2)))) (let ((?v_173 (not ?v_39)) (?v_61 (distinct (- (- (* (- 5) x22) (* 12 x7)) (* 15 x6)) (- 25)))) (let ((?v_44 (not ?v_61)) (?v_66 (< (- (- (* 4 x23) x17) (* 14 x41)) (- 6)))) (let ((?v_107 (not ?v_66)) (?v_85 (not ?v_17)) (?v_228 (< (- (+ (* (- 17) x18) (* 12 x24)) (* 15 x7)) (- 26)))) (let ((?v_203 (not ?v_228)) (?v_81 (<= (+ (* 13 x15) (* 10 x41) (* 27 x35)) (- 8))) (?v_208 (<= (- (- (* 10 x16) 0) (* 26 x13)) (- 28)))) (let ((?v_120 (not ?v_208)) (?v_159 (< (+ (- (* (- 15) x22) (* 22 x10)) (* 6 x3)) (- 24))) (?v_150 (< (+ (- (* (- 4) x15) (* 6 x8)) x43) 28))) (let ((?v_170 (not ?v_150)) (?v_185 (<= (+ (* (- 23) x21) (* 4 x8) ?v_121) (- 4)))) (let ((?v_141 (not ?v_185)) (?v_197 (< (- (+ (* (- 13) x48) x7) (* 6 x13)) 7))) (let ((?v_172 (not ?v_197)) (?v_143 (< (- (+ (* 13 x46) (* 22 x23)) (* 12 x15)) (- 6))) (?v_222 (not ?v_129)) (?v_136 (<= (- (+ (* (- 9) x41) (* 2 x30)) ?v_130) 10))) (let ((?v_264 (not ?v_136)) (?v_164 (< (+ (- 0 (* 23 x19)) (* 23 x22)) (- 4)))) (let ((?v_192 (not ?v_164)) (?v_256 (not ?v_29)) (?v_246 (not ?v_82)) (?v_171 (not (<= (+ (- (* 2 x23) (* 20 x33)) (* 7 x20)) (- 14)))) (?v_175 (not ?v_145)) (?v_176 (not ?v_159)) (?v_237 (< (- (+ (* (- 17) x20) (* 18 x23)) (* 13 x13)) 11))) (let ((?v_188 (not ?v_237)) (?v_183 (not ?v_81)) (?v_245 (not ?v_143)) (?v_204 (<= (- (+ (* (- 4) x3) (* 3 x29)) (* 11 x48)) 24))) (let ((?v_251 (not ?v_204)) (?v_261 (or ?v_233 ?v_3)) (?v_248 (not ?v_152))) (and (and (and (and (and (and (and (and (and (and (and (and (and (and (and (and (and (and (and (and (and (and (and (and (and (and (and (and (and (and (and (and (and (and (and (and (and (and (and (and (and (and (and (and (and (and (and (and (and (and (and (and (and (and (and (and (and (and (and (and (and (and (and (and (and (and (and (and (and (and (and (and (and (and (and (and (and (and (and (and (and (and (and (and (and (and (and (and (and (and (and (and (and (and (and (and (and (and (and (and (and (and (and (and (and (and (and (and (and (and (and (and (and (and (and (and (and (and (and (and (and (and (and (and (and (and (and (and (and (and (and (and (and (and (and (and (and (and (and (and (and (and (and (and (and (and (and (and (and (and (and (and (and (and (and (and (and (and (and (and (and (and (and (and (and (and (and (and (and (and (and (and (and (and (and (and (and (and (and (and (and (and (and (and (and (and (and (and (and (and (and (and (and (and (and (and (and (and (and (and (and (and (and (and (and (and (and (and (and (and (and (and (and (and (and (and (and (and (and (and (and (and (and (and (and (and (and (and (and (and (and (and (and (and (and (and (and (and (and (and (and (and (and (and (and (and (and (and (and (and (and (and (and (and (and (and (and (and (and (and (and (and (and (and (and (and (and (and (and (and (and (and (and (and (and (and (and (and (and (and (and (and (and (and (and (and (and (and (and (and (and (and (and (and (and (and (and (and (and (and (and (and (and (and (and (and (and (and (and (and (and (and (and (and (and (and (and (and (and (and (and (and (and (and (and (and (and (and (and (and (and (and (and (and (and (and (and (and (and (and (and (and (and (and (and (and (and (and (and (and (and (and (and (and (and (and (and (and (and (and (and (and (and (and (and (and (and (and (and (and (and (and (and (and (and (and (and (and (and (and (and (and (and (and (and (and (and (and (and (and (and (and (and (and (and (and (and (and (and (and (and (and (and (and (and (and (and (and (and (and (and (and (and (and (and (and (and (and (and (and (and (and (and (and (and (and (and (and (and (and (and (and (and (and (and (and (and (and (and (and (and (and (and (and (and (and (and (and (and (and (and (and (and (and (and (and (and (and (and (and (and (and (and (and (and (and (and (and (and (and (and (and (and (and (and (and (and (and (and (and (and (and (and (and (and (and (and (and (and (and (and (and (and (and (and (and (and (and (and (and (and (and (and (and (and (and (and (and (and (and (and (and (and (and (and (and (and (and (and (and (and (and (and (and (and (and (and (and (and (and (and (and (and (and (and (and (and (and (and (and (and (and (and (and (and (and (and (and (and (and (and (and (and (and (and (and (and (and (and (and (and (and (and (and (and (and (and (and (and (and (and (and (and (and (and (and (and (and (and (and (and (and (and (and (and (and (and (and (and (and (and (and (and (and (and (and (and (and (and (or (or P35 ?v_194) ?v_0) (or (or ?v_13 ?v_20) ?v_109)) (or (or P32 ?v_87) ?v_133)) (or (or ?v_3 ?v_47) ?v_102)) (or (or P45 ?v_155) ?v_108)) (or (or ?v_135 ?v_45) ?v_112)) (or (or ?v_229 ?v_48) ?v_55)) (or (or ?v_67 ?v_28) ?v_1)) (or (or ?v_63 ?v_122) ?v_98)) (or (or ?v_1 ?v_234) ?v_226)) (or (or P40 ?v_3) ?v_106)) (or (or ?v_4 ?v_25) ?v_134)) (or (or ?v_94 ?v_72) P9)) (or (or ?v_6 ?v_125) ?v_93)) (or (or P31 ?v_7) ?v_160)) (or (or ?v_59 ?v_11) ?v_49)) (or (or ?v_145 ?v_236) ?v_126)) (or (or ?v_37 ?v_15) ?v_11)) (or (or ?v_16 ?v_13) ?v_21)) (or (or ?v_123 ?v_40) ?v_6)) (or (or P11 ?v_17) ?v_14)) (or (or ?v_117 ?v_15) ?v_223)) (or (or ?v_35 ?v_16) ?v_17)) (or (or P44 ?v_56) ?v_152)) (or (or ?v_110 ?v_18) ?v_163)) (or (or ?v_19 ?v_146) ?v_20)) (or (or P46 ?v_60) ?v_15)) (or (or ?v_263 ?v_206) ?v_138)) (or (or ?v_129 ?v_82) ?v_21)) (or (or ?v_22 ?v_29) P20)) (or (or ?v_3 ?v_86) ?v_22)) (or (or ?v_23 ?v_24) ?v_25)) (or (or ?v_165 ?v_0) ?v_41)) (or (or ?v_74 ?v_173) ?v_27)) (or (or ?v_151 P3) ?v_42)) (or (or ?v_44 ?v_28) ?v_166)) (or (or ?v_29 ?v_30) P45)) (or (or ?v_80 P15) ?v_107)) (or (or ?v_64 P19) ?v_50)) (or (or ?v_31 ?v_142) ?v_33)) (or (or ?v_34 ?v_38) P5)) (or (or ?v_111 P37) ?v_35)) (or (or P11 ?v_54) P27)) (or (or ?v_36 ?v_147) ?v_30)) (or (or ?v_23 ?v_240) ?v_92)) (or (or ?v_91 ?v_11) ?v_37)) (or (or ?v_85 ?v_46) ?v_38)) (or (or P4 ?v_39) ?v_62)) (or (or ?v_217 ?v_42) ?v_1)) (or (or ?v_39 ?v_127) P3)) (or (or ?v_43 P23) ?v_198)) (or (or ?v_44 ?v_116) ?v_45)) (or (or P14 ?v_168) ?v_46)) (or (or P3 P21) ?v_47)) (or (or ?v_48 ?v_186) ?v_6)) (or (or ?v_78 ?v_49) ?v_103)) (or (or ?v_73 ?v_51) ?v_254)) (or (or ?v_148 ?v_52) ?v_20)) (or (or ?v_53 ?v_77) ?v_96)) (or (or ?v_55 P46) ?v_118)) (or (or ?v_56 ?v_33) ?v_41)) (or (or ?v_57 ?v_76) P10)) (or (or P7 ?v_59) ?v_95)) (or (or ?v_11 ?v_60) ?v_23)) (or (or ?v_203 P11) P28)) (or (or ?v_61 ?v_62) ?v_162)) (or (or ?v_169 ?v_63) ?v_81)) (or (or ?v_64 ?v_105) ?v_42)) (or (or ?v_201 ?v_65) ?v_66)) (or (or ?v_84 ?v_157) ?v_68)) (or (or ?v_69 ?v_243) ?v_158)) (or (or ?v_73 ?v_62) P26)) (or (or ?v_167 ?v_74) P8)) (or (or ?v_101 ?v_76) ?v_77)) (or (or ?v_195 ?v_79) P45)) (or (or ?v_80 ?v_81) ?v_82)) (or (or ?v_83 ?v_84) ?v_180)) (or (or ?v_174 P22) P31)) (or (or ?v_124 ?v_66) ?v_85)) (or (or ?v_41 ?v_156) ?v_86)) (or (or P8 ?v_43) ?v_104)) (or (or ?v_40 P35) ?v_99)) (or (or P26 ?v_88) P11)) (or (or ?v_89 ?v_113) ?v_30)) (or (or ?v_90 ?v_119) ?v_91)) (or (or P48 ?v_92) ?v_93)) (or (or ?v_94 ?v_95) ?v_96)) (or (or ?v_13 ?v_6) P42)) (or (or ?v_100 P20) P8)) (or (or P7 ?v_97) ?v_6)) (or (or P11 ?v_98) ?v_99)) (or (or ?v_230 ?v_139) ?v_102)) (or (or P30 ?v_103) P34)) (or (or ?v_231 ?v_105) ?v_106)) (or (or ?v_16 ?v_190) ?v_86)) (or (or ?v_7 ?v_53) P18)) (or (or ?v_212 ?v_120) ?v_64)) (or (or P8 P6) ?v_47)) (or (or ?v_107 ?v_20) ?v_97)) (or (or ?v_108 ?v_92) ?v_109)) (or (or ?v_49 ?v_90) ?v_45)) (or (or ?v_110 P18) ?v_131)) (or (or ?v_1 ?v_111) ?v_42)) (or (or ?v_14 ?v_112) ?v_3)) (or (or ?v_159 ?v_113) ?v_92)) (or (or ?v_49 ?v_205) ?v_31)) (or (or ?v_132 ?v_137) ?v_115)) (or (or ?v_116 ?v_170) ?v_191)) (or (or ?v_80 P47) ?v_117)) (or (or ?v_118 ?v_110) ?v_62)) (or (or ?v_16 P20) P32)) (or (or ?v_119 P49) ?v_11)) (or (or ?v_22 ?v_120) ?v_91)) (or (or ?v_141 ?v_122) P30)) (or (or P38 ?v_3) ?v_123)) (or (or P16 ?v_124) ?v_125)) (or (or ?v_25 ?v_92) ?v_90)) (or (or ?v_56 ?v_102) P24)) (or (or ?v_250 ?v_127) ?v_128)) (or (or ?v_172 ?v_87) ?v_143)) (or (or P16 ?v_91) ?v_222)) (or (or ?v_49 ?v_264) ?v_192)) (or (or ?v_131 ?v_182) ?v_132)) (or (or P18 P5) ?v_133)) (or (or ?v_132 P22) ?v_82)) (or (or ?v_134 ?v_135) ?v_28)) (or (or ?v_14 ?v_136) ?v_137)) (or (or ?v_256 ?v_211) P38)) (or (or ?v_139 ?v_140) ?v_246)) (or (or ?v_141 ?v_36) ?v_76)) (or (or ?v_120 ?v_79) ?v_59)) (or (or P12 ?v_135) ?v_85)) (or (or ?v_86 P14) ?v_21)) (or (or P18 ?v_123) ?v_69)) (or (or ?v_171 ?v_142) ?v_143)) (or (or ?v_144 P7) ?v_175)) (or (or ?v_146 ?v_109) ?v_3)) (or (or ?v_147 ?v_193) ?v_202)) (or (or P33 ?v_149) ?v_150)) (or (or ?v_82 ?v_92) P9)) (or (or P5 ?v_38) ?v_151)) (or (or ?v_92 ?v_152) ?v_153)) (or (or ?v_259 P44) ?v_154)) (or (or ?v_27 ?v_109) P32)) (or (or ?v_46 ?v_73) ?v_155)) (or (or ?v_46 ?v_28) ?v_81)) (or (or ?v_156 P28) ?v_25)) (or (or ?v_81 ?v_157) ?v_158)) (or (or ?v_49 ?v_106) ?v_140)) (or (or ?v_152 ?v_176) ?v_160)) (or (or ?v_69 ?v_129) ?v_132)) (or (or ?v_161 P46) P6)) (or (or ?v_41 ?v_188) ?v_19)) (or (or ?v_106 ?v_61) P39)) (or (or ?v_90 P42) ?v_162)) (or (or ?v_260 ?v_38) ?v_133)) (or (or ?v_20 ?v_163) ?v_116)) (or (or ?v_94 P13) ?v_184)) (or (or ?v_19 ?v_55) P47)) (or (or ?v_82 ?v_134) ?v_142)) (or (or ?v_49 ?v_164) ?v_23)) (or (or ?v_196 ?v_178) ?v_38)) (or (or ?v_165 ?v_166) ?v_42)) (or (or ?v_181 ?v_101) ?v_146)) (or (or P42 P35) ?v_0)) (or (or P2 ?v_78) ?v_167)) (or (or ?v_40 ?v_168) ?v_169)) (or (or ?v_170 ?v_171) ?v_98)) (or (or ?v_151 ?v_172) ?v_149)) (or (or ?v_173 ?v_83) ?v_174)) (or (or ?v_175 ?v_30) ?v_162)) (or (or ?v_176 ?v_34) P45)) (or (or ?v_53 P25) ?v_214)) (or (or ?v_178 ?v_138) P34)) (or (or ?v_90 P43) ?v_150)) (or (or ?v_151 ?v_68) ?v_131)) (or (or ?v_76 ?v_61) ?v_179)) (or (or ?v_42 ?v_143) P27)) (or (or ?v_41 P25) ?v_82)) (or (or P15 ?v_72) ?v_183)) (or (or ?v_27 ?v_45) ?v_80)) (or (or ?v_180 ?v_213) ?v_97)) (or (or ?v_181 ?v_148) ?v_113)) (or (or ?v_57 ?v_167) ?v_23)) (or (or ?v_150 ?v_115) ?v_89)) (or (or ?v_94 ?v_14) ?v_47)) (or (or ?v_253 ?v_146) ?v_129)) (or (or ?v_16 ?v_182) ?v_17)) (or (or ?v_146 ?v_14) ?v_101)) (or (or ?v_183 P9) ?v_31)) (or (or P27 ?v_174) ?v_139)) (or (or ?v_59 P35) ?v_219)) (or (or P7 ?v_128) ?v_80)) (or (or ?v_185 ?v_187) ?v_225)) (or (or ?v_59 ?v_172) P11)) (or (or ?v_111 ?v_17) ?v_120)) (or (or ?v_79 ?v_209) ?v_184)) (or (or ?v_187 ?v_188) ?v_171)) (or (or ?v_42 ?v_189) ?v_77)) (or (or ?v_190 ?v_191) P19)) (or (or ?v_210 ?v_74) ?v_192)) (or (or ?v_232 ?v_189) ?v_39)) (or (or ?v_115 ?v_166) ?v_94)) (or (or ?v_72 ?v_129) ?v_186)) (or (or ?v_193 ?v_233) ?v_104)) (or (or P5 ?v_161) ?v_17)) (or (or ?v_194 ?v_182) ?v_175)) (or (or ?v_216 ?v_145) ?v_195)) (or (or ?v_88 ?v_60) ?v_245)) (or (or ?v_139 ?v_145) ?v_196)) (or (or ?v_197 ?v_198) ?v_95)) (or (or ?v_94 ?v_4) ?v_199)) (or (or ?v_179 ?v_196) ?v_60)) (or (or ?v_162 ?v_227) ?v_38)) (or (or ?v_43 ?v_46) P41)) (or (or P44 ?v_134) ?v_133)) (or (or ?v_100 ?v_15) ?v_133)) (or (or P34 ?v_153) ?v_120)) (or (or ?v_47 P38) P6)) (or (or ?v_61 ?v_92) P4)) (or (or ?v_76 ?v_159) ?v_204)) (or (or ?v_164 ?v_143) ?v_127)) (or (or ?v_178 ?v_111) ?v_193)) (or (or ?v_218 ?v_57) P24)) (or (or ?v_200 P14) P16)) (or (or ?v_162 ?v_238) ?v_15)) (or (or P3 ?v_108) ?v_119)) (or (or ?v_16 ?v_145) ?v_39)) (or (or ?v_60 ?v_195) P38)) (or (or P13 P27) ?v_94)) (or (or ?v_161 ?v_31) ?v_125)) (or (or ?v_201 ?v_202) ?v_41)) (or (or ?v_67 ?v_176) ?v_15)) (or (or ?v_203 P21) ?v_251)) (or (or ?v_169 ?v_205) ?v_139)) (or (or ?v_180 ?v_103) ?v_166)) (or (or P41 ?v_107) P24)) (or (or P43 ?v_66) ?v_46)) (or (or ?v_158 ?v_206) ?v_113)) (or (or ?v_18 ?v_215) ?v_117)) (or (or ?v_34 ?v_95) ?v_207)) (or (or ?v_101 ?v_208) ?v_7)) (or (or ?v_161 ?v_153) ?v_109)) (or (or ?v_209 ?v_210) ?v_159)) (or (or P3 ?v_191) ?v_247)) (or (or P0 ?v_15) P19)) (or (or ?v_117 ?v_200) P12)) (or (or ?v_11 P28) P24)) (or (or ?v_211 ?v_153) ?v_119)) (or (or P7 ?v_181) ?v_176)) (or (or ?v_156 ?v_92) ?v_192)) (or (or ?v_159 ?v_176) ?v_108)) (or (or ?v_59 ?v_212) ?v_175)) (or (or ?v_213 ?v_255) ?v_60)) (or (or ?v_202 ?v_215) ?v_216)) (or (or ?v_51 ?v_46) ?v_165)) (or (or ?v_28 ?v_21) ?v_36)) (or (or P41 ?v_191) P5)) (or (or ?v_172 ?v_217) ?v_150)) (or (or ?v_97 ?v_220) ?v_183)) (or (or ?v_116 ?v_219) ?v_204)) (or (or ?v_141 P39) ?v_84)) (or (or ?v_220 P6) ?v_88)) (or (or ?v_221 ?v_156) ?v_3)) (or (or ?v_67 ?v_113) ?v_98)) (or (or ?v_23 P24) ?v_222)) (or (or ?v_223 ?v_6) ?v_37)) (or (or ?v_224 P16) ?v_42)) (or (or ?v_116 ?v_143) ?v_225)) (or (or ?v_104 ?v_47) ?v_124)) (or (or ?v_33 ?v_156) ?v_150)) (or (or ?v_214 ?v_101) ?v_6)) (or (or ?v_81 ?v_225) ?v_206)) (or (or ?v_119 ?v_74) ?v_80)) (or (or P28 ?v_96) ?v_51)) (or (or ?v_226 ?v_211) ?v_115)) (or (or P6 ?v_59) ?v_227)) (or (or ?v_210 ?v_42) ?v_145)) (or (or P37 ?v_128) ?v_90)) (or (or ?v_228 ?v_131) ?v_107)) (or (or ?v_74 ?v_83) ?v_40)) (or (or ?v_203 ?v_54) ?v_72)) (or (or ?v_39 ?v_55) ?v_169)) (or (or ?v_188 ?v_176) P3)) (or (or P48 ?v_34) ?v_47)) (or (or ?v_96 ?v_206) P0)) (or (or ?v_44 ?v_225) P11)) (or (or ?v_211 ?v_228) P12)) (or (or ?v_31 P6) ?v_94)) (or (or ?v_124 ?v_229) ?v_138)) (or (or P17 ?v_239) ?v_136)) (or (or ?v_47 ?v_230) ?v_211)) (or (or ?v_231 ?v_28) ?v_206)) (or (or ?v_191 ?v_38) ?v_67)) (or (or P22 P20) ?v_21)) (or (or ?v_198 ?v_232) ?v_170)) (or (or ?v_33 ?v_100) ?v_110)) (or (or ?v_211 P7) ?v_164)) (or (or ?v_168 ?v_45) ?v_162)) (or (or ?v_54 ?v_168) ?v_112)) (or (or P37 ?v_81) ?v_143)) (or (or ?v_95 ?v_54) ?v_135)) (or (or ?v_212 P38) ?v_211)) (or (or ?v_67 ?v_63) ?v_106)) (or (or ?v_249 ?v_184) ?v_235)) (or (or ?v_220 ?v_233) ?v_83)) (or (or ?v_234 ?v_119) ?v_215)) (or (or P15 ?v_213) ?v_72)) (or (or ?v_235 P15) ?v_188)) (or (or P40 ?v_106) ?v_236)) (or (or ?v_184 ?v_158) ?v_51)) (or (or P27 ?v_143) ?v_136)) (or (or ?v_237 ?v_150) P5)) (or (or P9 ?v_238) ?v_225)) (or (or ?v_162 ?v_116) P20)) (or (or ?v_239 ?v_110) ?v_241)) (or (or ?v_224 ?v_18) ?v_213)) (or (or ?v_238 ?v_19) ?v_234)) (or (or ?v_244 ?v_204) ?v_13)) (or (or ?v_53 P41) ?v_87)) (or (or P21 P9) ?v_166)) (or (or ?v_50 ?v_102) ?v_176)) (or (or ?v_204 ?v_128) P14)) (or (or ?v_208 P23) ?v_184)) (or (or ?v_108 ?v_235) P14)) (or (or P18 P43) ?v_20)) (or (or ?v_52 P8) ?v_210)) (or (or ?v_210 P49) ?v_84)) (or (or ?v_6 ?v_3) ?v_61)) (or (or ?v_225 ?v_64) ?v_46)) (or (or ?v_142 ?v_92) ?v_33)) (or (or P32 P16) ?v_103)) (or (or ?v_129 P37) ?v_143)) (or (or ?v_19 ?v_112) ?v_98)) (or (or ?v_147 ?v_183) ?v_112)) (or (or ?v_197 ?v_220) ?v_137)) (or (or P33 ?v_92) ?v_147)) (or (or ?v_22 ?v_159) ?v_213)) (or (or ?v_154 ?v_73) ?v_78)) (or (or ?v_105 ?v_240) ?v_72)) (or (or ?v_238 P25) ?v_240)) (or (or ?v_242 ?v_36) ?v_89)) (or (or ?v_123 ?v_241) ?v_78)) (or (or ?v_165 ?v_44) ?v_103)) (or (or ?v_39 ?v_190) ?v_233)) (or (or ?v_159 P25) ?v_203)) (or (or ?v_68 ?v_196) ?v_154)) (or (or ?v_219 ?v_118) ?v_105)) (or (or ?v_116 ?v_108) ?v_242)) (or (or ?v_182 P26) ?v_78)) (or (or ?v_45 ?v_36) P46)) (or (or ?v_56 ?v_236) P31)) (or (or ?v_125 ?v_101) ?v_182)) (or (or ?v_149 ?v_215) ?v_239)) (or (or ?v_141 ?v_72) ?v_144)) (or (or ?v_214 ?v_47) ?v_98)) (or ?v_261 ?v_225)) (or (or ?v_27 P18) ?v_96)) (or (or ?v_131 ?v_200) ?v_6)) (or (or ?v_93 ?v_147) ?v_183)) (or (or ?v_99 ?v_159) P5)) (or (or P29 ?v_80) ?v_183)) (or (or ?v_134 ?v_188) ?v_208)) (or (or ?v_57 ?v_132) ?v_38)) (or (or ?v_22 P7) ?v_147)) (or (or ?v_227 ?v_152) ?v_186)) (or (or ?v_53 ?v_229) ?v_186)) (or (or ?v_161 ?v_205) P17)) (or (or ?v_241 ?v_243) ?v_33)) (or (or ?v_17 ?v_47) ?v_244)) (or (or ?v_125 ?v_171) ?v_252)) (or (or ?v_257 P44) ?v_158)) (or (or ?v_245 ?v_211) ?v_90)) (or (or ?v_161 ?v_174) P27)) (or (or ?v_131 ?v_14) ?v_22)) (or (or P43 ?v_192) P15)) (or (or ?v_83 ?v_200) ?v_74)) (or (or ?v_147 ?v_142) P27)) (or (or P44 ?v_175) P38)) (or (or P39 ?v_76) P27)) (or (or ?v_59 ?v_101) ?v_246)) (or (or ?v_197 ?v_77) ?v_237)) (or (or ?v_150 ?v_96) P15)) (or (or ?v_175 ?v_247) P31)) (or (or ?v_69 ?v_185) ?v_214)) (or (or ?v_217 ?v_183) P26)) (or (or ?v_248 ?v_221) ?v_148)) (or (or ?v_245 ?v_34) ?v_65)) (or (or ?v_48 ?v_66) P5)) (or (or ?v_169 ?v_35) ?v_232)) (or (or ?v_149 ?v_101) P14)) (or (or ?v_144 ?v_51) ?v_206)) (or (or ?v_248 ?v_188) ?v_129)) (or (or ?v_152 ?v_218) ?v_54)) (or (or ?v_128 ?v_249) P39)) (or (or P1 ?v_44) ?v_250)) (or (or ?v_34 ?v_125) ?v_161)) (or (or ?v_262 ?v_62) P26)) (or (or ?v_149 ?v_188) ?v_251)) (or (or P28 ?v_116) ?v_107)) (or (or P36 ?v_252) ?v_63)) (or (or ?v_150 ?v_81) ?v_129)) (or (or ?v_182 ?v_113) ?v_13)) (or (or P32 P28) P9)) (or (or ?v_136 ?v_147) P7)) (or (or ?v_189 ?v_178) ?v_186)) (or (or ?v_55 ?v_158) ?v_57)) (or (or ?v_167 ?v_194) ?v_134)) (or (or ?v_35 ?v_28) ?v_176)) (or (or ?v_209 ?v_252) ?v_18)) (or (or ?v_159 ?v_21) ?v_132)) (or (or ?v_106 P38) ?v_38)) (or (or ?v_253 ?v_254) ?v_145)) (or (or ?v_240 ?v_180) ?v_53)) (or (or ?v_206 ?v_234) ?v_109)) (or (or ?v_166 ?v_194) ?v_211)) (or (or P27 ?v_102) ?v_86)) (or (or P19 ?v_98) P45)) (or (or ?v_87 ?v_55) ?v_40)) (or (or ?v_258 ?v_240) ?v_249)) (or (or P43 P39) ?v_82)) (or (or ?v_48 ?v_169) ?v_142)) (or (or ?v_220 P16) ?v_160)) (or (or ?v_128 ?v_195) ?v_40)) (or (or ?v_179 ?v_113) ?v_136)) (or (or P2 ?v_255) ?v_116)) (or (or P30 ?v_149) P45)) (or (or ?v_187 ?v_139) ?v_189)) (or (or ?v_163 ?v_74) ?v_256)) (or (or (not P42) ?v_219) ?v_245)) (or (or ?v_186 P5) ?v_257)) (or (or ?v_56 P15) ?v_119)) (or (or P22 ?v_170) ?v_243)) (or (or ?v_79 ?v_85) ?v_236)) (or (or ?v_141 ?v_186) P43)) (or (or ?v_173 ?v_200) ?v_222)) (or (or ?v_224 ?v_242) P20)) (or (or ?v_206 ?v_241) ?v_219)) (or (or P1 ?v_23) P6)) (or (or ?v_258 P47) ?v_185)) (or (or P12 ?v_158) ?v_214)) (or (or P16 ?v_202) ?v_244)) (or (or ?v_82 ?v_42) ?v_67)) (or (or ?v_146 P7) ?v_183)) (or (or ?v_232 ?v_43) ?v_80)) (or (or P44 ?v_63) ?v_170)) (or (or ?v_242 ?v_219) P28)) (or (or ?v_101 ?v_188) ?v_251)) (or (or ?v_36 P49) P39)) (or (or ?v_186 ?v_100) P28)) (or (or ?v_40 ?v_185) ?v_246)) (or (or ?v_204 ?v_144) ?v_200)) (or (or ?v_191 ?v_162) ?v_176)) (or (or P28 ?v_204) ?v_240)) (or (or P41 ?v_225) ?v_89)) (or (or P20 ?v_204) P38)) (or (or ?v_74 ?v_202) ?v_33)) (or (or ?v_259 ?v_29) ?v_252)) (or (or ?v_85 ?v_60) ?v_89)) (or (or ?v_40 P44) ?v_207)) (or (or ?v_13 ?v_132) ?v_239)) (or (or ?v_63 ?v_99) ?v_22)) (or (or P27 ?v_87) ?v_88)) (or (or ?v_50 ?v_40) ?v_45)) (or (or P22 ?v_212) ?v_83)) (or (or ?v_163 ?v_34) ?v_77)) (or (or ?v_167 P40) ?v_181)) (or (or ?v_227 ?v_187) ?v_92)) (or (or ?v_115 ?v_260) ?v_258)) (or (or ?v_31 ?v_110) ?v_30)) (or (or ?v_67 ?v_203) ?v_145)) (or (or ?v_145 ?v_16) ?v_43)) (or (or ?v_260 ?v_15) ?v_206)) (or (or ?v_169 ?v_48) ?v_202)) (or (or ?v_253 ?v_210) P46)) (or (or ?v_131 P10) ?v_29)) (or (or ?v_258 ?v_33) ?v_250)) (or ?v_261 P13)) (or (or ?v_67 ?v_59) ?v_136)) (or (or P44 ?v_245) ?v_153)) (or (or ?v_92 P10) ?v_22)) (or (or ?v_173 P15) ?v_167)) (or (or ?v_164 ?v_168) ?v_147)) (or (or ?v_206 P34) P0)) (or (or P3 ?v_257) ?v_233)) (or (or ?v_111 ?v_185) ?v_205)) (or (or ?v_137 ?v_36) ?v_109)) (or (or ?v_68 P41) ?v_103)) (or (or ?v_229 ?v_242) P22)) (or (or P11 ?v_21) P19)) (or (or ?v_65 ?v_60) ?v_56)) (or (or ?v_178 ?v_172) ?v_82)) (or (or ?v_24 ?v_243) ?v_119)) (or (or ?v_170 ?v_173) ?v_43)) (or (or ?v_168 P44) ?v_120)) (or (or P0 ?v_211) ?v_124)) (or (or ?v_251 ?v_41) ?v_225)) (or (or ?v_225 P32) ?v_144)) (or (or ?v_171 ?v_182) ?v_45)) (or (or ?v_147 ?v_81) ?v_72)) (or (or P2 ?v_194) ?v_185)) (or (or ?v_36 ?v_243) P18)) (or (or ?v_93 ?v_81) P7)) (or (or ?v_160 ?v_35) ?v_240)) (or (or ?v_127 ?v_221) ?v_23)) (or (or ?v_158 ?v_68) ?v_45)) (or (or ?v_85 ?v_202) ?v_103)) (or (or ?v_51 ?v_209) ?v_245)) (or (or ?v_223 ?v_156) ?v_103)) (or (or ?v_152 ?v_226) P47)) (or (or P26 ?v_206) P46)) (or (or ?v_56 P29) P42)) (or (or ?v_86 ?v_256) P27)) (or (or ?v_248 P36) ?v_82)) (or (or ?v_36 ?v_103) ?v_183)) (or (or P4 ?v_52) ?v_144)) (or (or ?v_262 ?v_55) ?v_17)) (or (or P38 ?v_132) ?v_37)) (or ?v_265 ?v_235)) (or (or P35 ?v_30) ?v_149)) (or (or ?v_137 P47) ?v_132)) (or (or ?v_176 ?v_215) ?v_126)) (or (or ?v_47 P41) ?v_198)) (or (or ?v_230 ?v_263) ?v_68)) (or (or ?v_256 ?v_96) ?v_88)) (or (or ?v_132 ?v_57) P23)) (or (or ?v_206 ?v_81) ?v_105)) (or (or ?v_211 ?v_76) ?v_51)) (or (or P49 ?v_21) ?v_191)) (or (or ?v_173 ?v_246) ?v_76)) (or (or ?v_47 ?v_189) ?v_28)) (or (or ?v_208 ?v_256) P26)) (or (or ?v_109 ?v_202) ?v_264)) (or (or ?v_182 ?v_3) ?v_92)) (or (or ?v_140 ?v_257) ?v_218)) (or (or ?v_109 ?v_187) ?v_200)) (or (or ?v_29 ?v_93) P6)) (or (or ?v_86 ?v_148) ?v_240)) (or (or ?v_36 ?v_253) ?v_145)) (or (or ?v_41 ?v_88) ?v_86)) (or (or ?v_155 ?v_38) ?v_101)) (or (or ?v_217 ?v_97) ?v_206)) (or (or ?v_221 P11) ?v_78)) (or (or P41 ?v_219) ?v_97)) (or (or P20 ?v_207) ?v_206)) (or (or ?v_52 ?v_131) ?v_66)) (or (or P4 ?v_193) ?v_23)) (or (or ?v_116 ?v_129) P24)) (or (or P9 ?v_95) ?v_239)) (or ?v_265 ?v_217)) (or (or ?v_207 ?v_90) ?v_222)) (or (or ?v_207 ?v_162) ?v_22)) (or (or ?v_258 ?v_73) ?v_62)) (or (or ?v_102 ?v_42) ?v_132)) (or (or ?v_245 P23) ?v_203)) (or (or ?v_62 ?v_74) P39)) (or (or ?v_83 ?v_179) ?v_160)) (or (or ?v_76 ?v_63) ?v_0)) (or (or ?v_27 ?v_69) ?v_194)) (or (or ?v_227 ?v_186) ?v_168)) (or (or ?v_228 ?v_228) P33)) (or (or P45 ?v_173) ?v_206)) (or (or ?v_127 ?v_152) ?v_91)) (or (or ?v_54 ?v_198) P33)) (or (or ?v_162 ?v_35) ?v_73)) (or (or ?v_197 ?v_129) ?v_250)) (or (or ?v_259 ?v_63) P28)) (or (or ?v_107 ?v_34) ?v_244)) (or (or ?v_248 ?v_14) ?v_128)) (or (or P2 ?v_110) P29)) (or (or ?v_136 ?v_80) ?v_154)) (or (or ?v_55 ?v_227) ?v_245)) (or (or ?v_46 ?v_237) ?v_120)) (or (or ?v_250 ?v_215) ?v_11)) (or (or ?v_47 ?v_43) ?v_65)) (or (or ?v_112 P25) ?v_198)) (or (or ?v_225 ?v_21) P2)) (or (or ?v_154 ?v_263) ?v_79)) (or (or ?v_140 ?v_197) ?v_199)) (or (or ?v_201 ?v_218) ?v_164)) (or (or ?v_240 ?v_55) P28)) (or (or ?v_159 ?v_126) ?v_30)) (or (or ?v_38 ?v_54) P36)) (or (or ?v_150 ?v_193) ?v_230)) (or (or ?v_232 ?v_240) ?v_214)) (or (or P19 ?v_128) ?v_7)) (or (or ?v_247 P2) P15)) (or (or ?v_174 ?v_166) ?v_186)) (or (or P3 ?v_18) ?v_244)) (or (or ?v_191 P16) ?v_11)) (or (or ?v_54 P30) ?v_135)) (or (or ?v_226 ?v_134) ?v_36)) (or (or ?v_44 ?v_162) ?v_253)) (or (or ?v_103 ?v_137) ?v_226)) (or (or ?v_204 ?v_187) ?v_259)) (or (or ?v_43 ?v_188) ?v_72)) (or (or ?v_238 ?v_238) ?v_44)) (or (or ?v_53 ?v_250) ?v_221)) (or (or ?v_232 ?v_87) ?v_226)) (or (or ?v_194 ?v_215) ?v_222))))))))))))))))))))))))))))))))))))))))))))))))))))
(check-sat)
(exit)
